# Silicon bulk - much larger test
acell 3*10.26 
rprim
0.0 0.5 0.5
0.5 0.0 0.5
0.5 0.5 0.0

ntypat 1
znucl 14
natom 2
typat 1 1
xred
0.0  0.0  0.0
0.25 0.25 0.25

ecut 40
nstep 100
toldfe 1.0d-10

ngkpt 8 8 8
nshiftk 1
shiftk 0.0 0.0 0.0

pp_dirpath "/usr/share/abinit/psp"
pseudos "Si.psp8"
